(set-logic ALL)
(set-option :produce-models true)
(declare-sort BoundSet 0)
(declare-sort UnboundSet 0)
(set-option :finite-model-find true)
(declare-fun IsInOvercoat (BoundSet) Bool)
(declare-fun IsPuttingOnGloves (BoundSet) Bool)
(declare-fun IsAtSubwayStation (BoundSet) Bool)
(declare-fun IsInSubwayStation (BoundSet) Bool)
(assert (not (=> (and (exists ((b BoundSet)) (and (IsInOvercoat b) (and (IsPuttingOnGloves b) (IsAtSubwayStation b)))) (forall ((e BoundSet)) (forall ((f BoundSet)) (=> (IsAtSubwayStation e) (IsInSubwayStation f))))) (exists ((d BoundSet)) (IsInSubwayStation d)))))
(check-sat)
(get-model)